data;
param K := 3;
param N := 7;
param C := 
	1 15
	2 10
	3 7;
param L := 
	1 3
	2 2
	3 6
	4 8
	5 5
	6 4
	7 4;
param D:  1  2  3  4  5  6  7  8 :=
	1 0  3  3  6  5  6  6  2
	2 3  0  6  3  4  7  7  3
	3 3  4  0  7  6  3  5  3
	4 6  3  7  0  5  6  7  4
	5 5  4  6  3  0  3  3  3
	6 6  7  3  6  3  0  2  4
	7 6  7  5  6  3  2  0  4
	8 2  3  3  4  3  4  4  0
;